c Sudoku solution
p cnf 729 0
122 0
131 0
185 0
277 0
298 0
344 0
382 0
446 0
483 0
495 0
526 0
628 0
633 0
652 0
676 0
725 0
739 0
762 0
242 0
788 0
796 0
286 0
823 0
861 0
251 0
936 0
856 0
949 0
964 0
972 0
875 0
955 0
848 0
918 0
993 0
338 0
592 0
517 0
327 0
921 0
714 0
812 0
837 0
771 0
987 0
432 0
391 0
411 0
697 0
684 0
581 0
641 0
545 0
669 0
534 0
429 0
615 0
454 0
467 0
478 0
579 0
235 0
224 0
365 0
166 0
158 0
147 0
316 0
743 0
757 0
553 0
568 0
359 0
263 0
219 0
113 0
373 0
174 0
199 0
889 0
894 0
